c 
p cnf 121 197
-13 7 21 0
-21 -2 6 0
-19 -10 20 0
1 2 22 0
1 2 -22 0
4 6 -16 0
7 -4 -11 0
-8 -9 23 0
-23 -18 24 0
-24 -16 -3 0
19 3 12 0
15 12 25 0
-25 9 8 0
5 7 26 0
-26 9 13 0
7 10 27 0
-27 3 28 0
-28 18 17 0
20 -9 29 0
-29 13 30 0
-30 -12 -1 0
16 4 -10 0
-7 16 31 0
-31 2 32 0
-32 12 14 0
18 -7 2 0
10 33 34 0
10 33 -34 0
10 -33 34 0
10 -33 -34 0
3 -17 -10 0
20 -5 35 0
-35 7 -1 0
20 12 36 0
-36 -9 -5 0
3 37 38 0
3 37 -38 0
3 -37 38 0
3 -37 -38 0
-14 17 39 0
-39 -13 40 0
-40 -2 -3 0
8 41 42 0
8 41 -42 0
8 -41 42 0
8 -41 -42 0
-10 -18 43 0
-43 -6 -1 0
17 44 45 0
17 44 -45 0
17 -44 45 0
17 -44 -45 0
9 -6 46 0
9 -6 -46 0
-17 -6 47 0
-17 -6 -47 0
-8 -16 13 0
7 -8 48 0
-48 19 14 0
16 49 50 0
16 49 -50 0
16 -49 50 0
16 -49 -50 0
4 13 51 0
-51 18 16 0
-1 6 52 0
-52 15 -11 0
-5 53 54 0
-5 53 -54 0
-5 -53 54 0
-5 -53 -54 0
18 -10 -19 0
-6 -19 55 0
-6 -19 -55 0
4 -15 56 0
-56 2 57 0
-57 19 16 0
-10 9 58 0
-58 18 59 0
-59 -6 -3 0
9 -18 -11 0
-3 19 7 0
-12 60 61 0
-12 60 -61 0
-12 -60 61 0
-12 -60 -61 0
14 8 62 0
-62 13 63 0
-63 11 9 0
10 -14 64 0
-64 18 65 0
-65 -16 7 0
2 7 66 0
2 7 -66 0
20 67 68 0
20 67 -68 0
20 -67 68 0
20 -67 -68 0
-1 -11 69 0
-1 -11 -69 0
-15 70 71 0
-15 70 -71 0
-15 -70 71 0
-15 -70 -71 0
19 17 72 0
-72 -2 14 0
-17 73 74 0
-17 73 -74 0
-17 -73 74 0
-17 -73 -74 0
7 15 75 0
-75 -17 76 0
-76 13 2 0
-3 -15 77 0
-77 9 78 0
-78 4 7 0
-18 9 79 0
-18 9 -79 0
-2 14 80 0
-2 14 -80 0
1 5 81 0
-81 20 82 0
-82 -3 19 0
5 7 83 0
-83 -9 84 0
-84 2 10 0
-3 6 85 0
-85 -11 19 0
-7 -11 86 0
-7 -11 -86 0
18 6 87 0
-87 -17 -7 0
5 -8 88 0
-88 -1 89 0
-89 -20 -11 0
14 18 90 0
-90 -17 -11 0
-10 91 92 0
-10 91 -92 0
-10 -91 92 0
-10 -91 -92 0
-16 9 93 0
-93 -12 94 0
-94 -5 -19 0
14 -13 95 0
14 -13 -95 0
-1 -4 96 0
-96 -18 9 0
10 4 97 0
-97 13 98 0
-98 7 -17 0
13 99 100 0
13 99 -100 0
13 -99 100 0
13 -99 -100 0
3 101 102 0
3 101 -102 0
3 -101 102 0
3 -101 -102 0
4 9 103 0
-103 -11 -15 0
14 8 104 0
14 8 -104 0
1 105 106 0
1 105 -106 0
1 -105 106 0
1 -105 -106 0
7 5 107 0
7 5 -107 0
-20 3 108 0
-108 5 109 0
-109 19 18 0
9 -12 -14 0
14 110 111 0
14 110 -111 0
14 -110 111 0
14 -110 -111 0
-6 -19 1 0
-4 20 112 0
-4 20 -112 0
16 3 113 0
-113 4 114 0
-114 17 8 0
-4 15 115 0
-115 -5 116 0
-116 -16 3 0
-5 117 118 0
-5 117 -118 0
-5 -117 118 0
-5 -117 -118 0
17 10 -14 0
-10 -1 119 0
-119 17 12 0
6 -17 120 0
-120 10 -2 0
17 -4 121 0
-121 -16 12 0
